M+/Instances/S1-5-M+/S1-10-5-2-s-M+.txt
     100       5    0.10
       1       3       1       3       2       3      11       3       1       5       1
       3       3       2       3       1      13      14       4       3      12       1
       3       1       1       3       1      11      11       9       3      14       1
       2       2       3       1       3       4       8       0      16       9       1
       3       1       3       1       3      10       5      14       4      16       1
       3       1       1       2       2      11       8      14       9      12       1
       2       3       3       3       3      10       7       5      10       1       1
       2       2       1       2       2      13       4      16       0      10       1
       2       3       2       1       3      11      10      14       2       5       1
       3       1       3       3       3      14       8      10      12      12       1
       3       2       2       2       1      12       9      13       1      13       1
       3       2       3       3       2       2       4      15      15       4       1
       3       3       1       3       1      14       9      12      16       5       1
       1       3       1       1       3      14      13      16       6      16       1
       3       3       3       1       1       2      10       1       6       0       1
       2       3       3       3       2      16      11       9       8      13       1
       3       3       3       3       2       4      10      10       1       8       1
       3       3       3       2       1       8      13       3       9      14       1
       2       1       2       2       3       9      13       5      12       0       1
       1       2       3       2       2       6      14      14      10       8       1
       2       2       3       2       3       6      13       6       5      15       1
       2       3       3       2       1       1       6      13       3      10       1
       3       1       1       2       2       2      15       4       0      13       1
       2       1       2       2       2      14       0       3      14      15       1
       1       2       1       3       3      16       5       1       2       3       1
       2       3       1       1       3      15       2       0       3      11       1
       2       1       1       3       2       0       4       1       9      11       1
       3       2       3       3       2      14      13       2      12       9       1
       2       1       3       2       2      10       8      14       3       6       1
       2       3       2       1       1       3       1       8      10       9       1
       3       2       3       2       2       2       1      12      10       8       1
       1       3       1       1       2      14       5      10       4      10       1
       1       3       2       3       3       9      14       5      15       6       1
       1       2       2       2       1       2       7       5       3       2       1
       2       3       2       3       1      15       0       9      13      13       1
       1       1       2       2       2       6      15       3       1       4       1
       1       1       1       1       1      10       3      11      12       0       1
       1       3       2       1       1       0       5      10       8       0       1
       2       2       3       2       1      12       3       3      10      11       1
       3       1       2       1       2       0      10      14       7      12       1
       3       2       3       3       1      14       1      11      16       0       1
       1       1       1       2       1       5      10       3      11       5       1
       3       3       3       2       1      11      13      15      16       4       1
       1       2       3       2       1      15       6      11      15       8       1
       3       2       3       3       3      14       8       9      10       4       1
       1       3       2       3       1       6      15      14       2       0       1
       1       3       2       3       2      16       0      15       3      15       1
       3       3       1       1       2       5      11       5       7       8       1
       1       1       2       2       3      11       6       3       1       9       1
       2       2       2       2       2       1      10      11       3       0       1
       3       3       1       2       2      14       7       5      16      11       1
       1       2       2       3       2       9      11       5      15       1       1
       2       2       2       3       1      10      13       8      11       6       1
       2       3       3       1       2      12      11      12      13      11       1
       3       2       2       3       1       6      16       0       7       9       1
       2       3       2       2       1       6       3      12       7       9       1
       3       2       3       1       1       8       9      15       0      10       1
       1       2       3       3       1       4       7      12       3      11       1
       1       1       2       2       3       1      16      15      11      15       1
       3       1       1       2       1      15      10       8       7      12       1
       1       3       2       1       2      13      14      12      15      10       1
       2       2       2       3       3       3      10      12      15       5       1
       3       2       1       1       3       6       4       2      13       3       1
       1       2       1       2       1       1      15       0      11       4       1
       1       3       1       3       2       5      12       5      16      13       1
       1       2       1       3       2      14       2       9       5      11       1
       1       1       3       1       1       7      10       5      14       1       1
       1       3       2       3       3      13      14      15      13      11       1
       2       1       1       1       3      13      14       4      11      13       1
       1       1       3       1       1       6       8       9       1       8       1
       1       3       1       1       1      16       5      11       4       3       1
       2       2       1       3       3       6       8      13       4       6       1
       1       1       3       2       3       9      13       4      16      13       1
       2       2       2       2       1       5      16      13      10       2       1
       1       1       1       1       3       9       6       1       5       9       1
       1       3       3       2       1      16       2       2       6      10       1
       3       3       1       3       1       8      15       8      13       4       1
       1       2       1       1       3      12      12      11       3      13       1
       1       3       2       2       2      14       0      15      12       3       1
       1       1       2       1       3       1       8       5      16       0       1
       3       1       3       1       3      15       1      12      13      11       1
       3       3       3       1       2      10       0       8       3       4       1
       1       1       1       3       2       6       9       0      12      16       1
       2       3       1       2       1       4       3      15      10       4       1
       2       2       3       2       1       8      11       8      16       6       1
       3       1       2       2       3       4       1       9       8      16       1
       3       3       3       1       2      14      10       8       9       7       1
       1       2       3       3       2      15       5       3      15      12       1
       2       3       3       3       1      11       7      10       7      15       1
       2       3       2       3       2      15       0      16       0       4       1
       2       2       2       2       1      15      13       5      15       6       1
       2       2       2       3       2       0       9       1      10      14       1
       1       3       1       3       3      15       0       2       7       0       1
       1       3       2       3       1       9       1       7       6       9       1
       1       1       3       3       1       4      15       4      13       7       1
       3       3       1       3       3       2       6       9       4       8       1
       2       1       3       1       3       5       3       4       8       8       1
       2       3       3       1       1      12      15       2      14      12       1
       3       1       3       2       2      13       6       3       9       1       1
       3       3       2       2       1       6       5      12       9      14       1
      34      33      31      21      31
      69      70      78      68      61
     104     148     126      71     117