M+/results-log/S1-5-M+/S1-10-5-2-s-M+.log
CPXPARAM_Read_DataCheck                          1
Found incumbent of value 0.000000 after 0.00 sec. (0.02 ticks)
Tried aggregator 1 time.
MIP Presolve modified 1 coefficients.
Reduced MIP has 116 rows, 505 columns, and 2520 nonzeros.
Reduced MIP has 505 binaries, 0 generals, 0 SOSs, and 0 indicators.
Presolve time = 0.00 sec. (1.17 ticks)
Probing time = 0.00 sec. (1.01 ticks)
Tried aggregator 1 time.
Reduced MIP has 116 rows, 505 columns, and 2520 nonzeros.
Reduced MIP has 505 binaries, 0 generals, 0 SOSs, and 0 indicators.
Presolve time = 0.00 sec. (1.36 ticks)
Probing time = 0.00 sec. (1.00 ticks)
Clique table members: 805.
MIP emphasis: balance optimality and feasibility.
MIP search method: dynamic search.
Parallel mode: deterministic, using up to 4 threads.
Root relaxation solution time = 0.00 sec. (1.03 ticks)

        Nodes                                         Cuts/
   Node  Left     Objective  IInf  Best Integer    Best Bound    ItCnt     Gap

*     0+    0                            0.0000     3240.0000              --- 
      0     0      921.3392     5        0.0000      921.3392      157     --- 
      0     0      811.1907    86        0.0000     Cuts: 113      282     --- 
*     0+    0                          769.0000      811.1907             5.49%
      0     0      785.7808   141      769.0000      Cuts: 31      344    2.18%
      0     0      778.5537   168      769.0000      Cuts: 27      385    1.24%
*     0+    0                          773.0000      778.5537             0.72%
*     0+    0                          775.0000      778.5537             0.46%
      0     0        cutoff            775.0000      775.0000      385    0.00%
Elapsed time = 0.05 sec. (39.38 ticks, tree = 0.01 MB, solutions = 4)

Clique cuts applied:  113
Cover cuts applied:  11
Mixed integer rounding cuts applied:  6

Root node processing (before b&c):
  Real time             =    0.05 sec. (39.42 ticks)
Parallel b&c, 4 threads:
  Real time             =    0.00 sec. (0.00 ticks)
  Sync time (average)   =    0.00 sec.
  Wait time (average)   =    0.00 sec.
                          ------------
Total (root+branch&cut) =    0.05 sec. (39.42 ticks)
